TCS_Benchmarks/redos_fix/corpus3_output_distinct_345_344_0_0.smt2
(set-logic QF_S)
(declare-const x String)
(assert (str.in.re x (re.inter (re.+  (re.union  (str.to.re "\u{2d}") (re.union  (str.to.re "\u{2f}") (re.union (re.union (re.range "\u{09}" "\u{0d}") (re.range "\u{20}" "\u{20}") (re.range "\u{85}" "\u{85}") (re.range "\u{a0}" "\u{a0}")) (re.union (re.range "\u{30}" "\u{39}") (re.union  (str.to.re "\u{28}") (re.union  (str.to.re "\u{29}") (re.union  (str.to.re "\u{2e}") (re.union  (str.to.re "\u{2a}")  (str.to.re "\u{2b}"))))))))) )  (re.++ (re.+  (re.union  (str.to.re "\u{2d}") (re.union  (str.to.re "\u{2f}") (re.union (re.union (re.range "\u{09}" "\u{0d}") (re.range "\u{20}" "\u{20}") (re.range "\u{85}" "\u{85}") (re.range "\u{a0}" "\u{a0}")) (re.union (re.range "\u{30}" "\u{39}") (re.union  (str.to.re "\u{28}") (re.union  (str.to.re "\u{29}") (re.union  (str.to.re "\u{2e}") (re.union  (str.to.re "\u{2a}")  (str.to.re "\u{2b}"))))))))) ) (re.* (re.union (re.range "\u{09}" "\u{0d}") (re.range "\u{20}" "\u{20}") (re.range "\u{85}" "\u{85}") (re.range "\u{a0}" "\u{a0}")) )) (re.* (re.union (re.range "\u{09}" "\u{0d}") (re.range "\u{20}" "\u{20}") (re.range "\u{85}" "\u{85}") (re.range "\u{a0}" "\u{a0}")) ) )))
(check-sat)
(get-model)