TCS_Benchmarks/redos_fix/corpus3_output_distinct_345_344_0_0.txt
[\-\/\s0-9\(\).\*\+]+
([\-\/\s0-9\(\).\*\+]+)(\s*)
\s*